3 100 1469
6 7 10 1 7 8 3 7 9 9
4 2 3
5 9 1 8
1 4
9 3 7
0 40.0 50.0 0.0 0.0 0 1236
2 45.0 68.0 90.0 10.0 760 1120 33 0 0 1 0 0 1 0 1 0 0
3 45.0 70.0 90.0 30.0 668 1028 44 0 1 0 0 0 1 0 0 0 1
4 42.0 66.0 90.0 10.0 16 376 39 0 1 0 0 0 0 0 0 0 0
5 42.0 68.0 90.0 10.0 575 935 19 1 0 1 0 0 0 0 0 0 1
6 42.0 65.0 90.0 10.0 15 375 58 0 0 1 0 0 0 0 1 0 1
7 40.0 69.0 90.0 20.0 482 842 50 0 0 0 0 0 1 0 0 0 0
8 40.0 66.0 90.0 20.0 18 378 68 0 0 0 0 0 0 0 0 0 1
9 38.0 68.0 90.0 20.0 110 470 17 0 0 1 0 0 0 0 0 0 0
10 38.0 70.0 90.0 10.0 390 750 74 1 0 1 0 0 1 1 1 0 0
11 35.0 66.0 90.0 10.0 204 564 22 0 1 0 0 1 0 0 1 0 0
12 35.0 69.0 90.0 10.0 297 657 50 0 0 0 0 0 1 0 1 0 0
13 25.0 85.0 90.0 20.0 507 867 32 1 0 0 0 0 0 0 1 0 0
14 22.0 75.0 90.0 30.0 30 390 13 0 1 0 0 0 0 0 0 1 0
15 22.0 85.0 90.0 10.0 414 774 69 0 0 0 1 0 0 0 0 0 0
16 20.0 80.0 90.0 40.0 227 587 1 1 1 1 0 0 0 0 0 0 0
17 20.0 85.0 90.0 40.0 322 682 85 1 1 1 0 1 0 1 0 0 0
18 18.0 75.0 90.0 20.0 33 393 50 1 0 0 0 0 0 0 0 0 0
19 15.0 75.0 90.0 20.0 37 397 78 1 0 0 0 0 1 0 1 0 0
20 15.0 80.0 90.0 10.0 132 492 70 0 0 0 0 1 0 0 0 1 0
21 30.0 50.0 90.0 10.0 10 370 22 1 0 0 1 0 0 1 0 0 0
22 30.0 52.0 90.0 20.0 760 1120 98 0 0 1 0 0 0 0 0 0 1
23 28.0 52.0 90.0 20.0 668 1028 89 0 0 0 0 0 1 1 0 0 0
24 28.0 55.0 90.0 10.0 575 935 42 0 1 0 1 0 0 0 1 1 0
25 25.0 50.0 90.0 10.0 15 375 97 0 0 1 0 0 0 0 0 0 0
26 25.0 52.0 90.0 40.0 17 377 46 0 0 1 0 0 0 1 0 0 1
27 25.0 55.0 90.0 10.0 482 842 66 0 0 0 1 0 0 0 1 1 0
28 23.0 52.0 90.0 10.0 109 469 30 0 0 1 0 0 0 0 0 1 0
29 23.0 55.0 90.0 20.0 390 750 3 0 0 0 0 0 0 0 0 1 1
30 20.0 50.0 90.0 10.0 202 562 3 0 0 0 0 0 0 0 1 0 1
31 20.0 55.0 90.0 10.0 297 657 77 0 0 0 0 0 0 0 1 0 0
32 10.0 35.0 90.0 20.0 39 399 91 0 0 1 0 0 0 0 1 0 0
33 10.0 40.0 90.0 30.0 31 391 3 0 0 1 0 0 0 0 0 1 0
34 8.0 40.0 90.0 40.0 33 393 55 0 1 0 0 0 0 0 0 0 1
35 8.0 45.0 90.0 20.0 604 964 89 0 0 1 0 1 0 0 0 1 0
36 5.0 35.0 90.0 10.0 134 494 76 0 1 0 0 1 0 0 0 1 0
37 5.0 45.0 90.0 10.0 511 871 76 0 0 1 0 0 0 0 0 0 0
38 2.0 40.0 90.0 20.0 229 589 77 0 0 0 1 0 0 1 0 1 0
39 0.0 40.0 90.0 30.0 321 681 46 0 0 0 0 0 1 0 0 0 0
40 0.0 45.0 90.0 20.0 416 776 80 0 0 0 0 0 1 0 0 0 0
41 35.0 30.0 90.0 10.0 113 473 93 0 0 0 0 1 0 0 0 0 0
42 35.0 32.0 90.0 10.0 21 381 79 0 1 0 0 0 0 0 0 0 1
43 33.0 32.0 90.0 20.0 19 379 32 0 0 0 1 0 1 0 0 0 0
44 33.0 35.0 90.0 10.0 16 376 41 0 0 0 0 0 1 0 0 0 0
45 32.0 30.0 90.0 10.0 206 566 54 0 0 0 0 0 0 0 1 0 1
46 30.0 30.0 90.0 10.0 391 751 39 0 0 0 1 0 0 0 0 1 0
47 30.0 32.0 90.0 30.0 299 659 17 0 0 0 0 1 0 0 0 0 0
48 30.0 35.0 90.0 10.0 767 1127 58 0 0 0 1 0 1 0 0 1 0
49 28.0 30.0 90.0 10.0 483 843 56 0 0 1 0 0 0 0 1 1 0
50 28.0 35.0 90.0 10.0 766 1126 0 0 0 0 0 0 1 0 0 0 0
51 26.0 32.0 90.0 10.0 668 1028 31 0 0 0 1 1 1 0 0 0 0
52 25.0 30.0 90.0 10.0 576 936 9 0 0 0 1 0 0 0 0 0 0
53 25.0 35.0 90.0 10.0 761 1121 74 0 0 0 0 0 1 0 0 0 1
54 44.0 5.0 90.0 20.0 137 497 27 0 0 0 0 1 0 0 0 0 0
55 42.0 10.0 90.0 40.0 42 402 8 0 0 0 0 0 1 0 0 0 0
56 42.0 15.0 90.0 10.0 35 395 2 0 0 0 0 0 1 1 0 0 0
57 40.0 5.0 90.0 30.0 231 591 70 0 0 0 0 0 0 0 1 0 0
58 40.0 15.0 90.0 40.0 35 395 6 1 0 1 0 0 0 0 1 0 0
59 38.0 5.0 90.0 30.0 323 683 58 0 0 1 0 1 0 0 0 0 1
60 38.0 15.0 90.0 10.0 516 876 9 0 0 0 0 0 0 1 0 0 0
61 35.0 5.0 90.0 20.0 416 776 96 0 1 0 0 0 1 0 1 0 1
62 50.0 30.0 90.0 10.0 391 751 46 0 0 0 0 0 0 0 1 1 0
63 50.0 35.0 90.0 20.0 110 470 44 0 1 0 0 0 0 0 0 0 0
64 50.0 40.0 90.0 50.0 15 375 23 0 0 0 0 0 0 0 1 1 0
65 48.0 30.0 90.0 10.0 483 843 61 1 0 1 0 0 1 0 0 0 0
66 48.0 40.0 90.0 10.0 12 372 41 0 0 0 0 0 1 0 0 0 0
67 47.0 35.0 90.0 10.0 671 1031 66 1 0 0 1 0 1 0 0 0 1
68 47.0 40.0 90.0 10.0 12 372 91 0 0 0 0 0 1 0 0 0 0
69 45.0 30.0 90.0 10.0 576 936 80 0 0 0 0 0 1 0 0 0 0
70 45.0 35.0 90.0 10.0 763 1123 23 0 0 0 0 0 0 1 0 0 0
71 95.0 30.0 90.0 30.0 242 602 57 0 0 0 0 0 1 0 0 0 0
72 95.0 35.0 90.0 20.0 147 507 66 1 0 1 0 0 0 0 1 1 0
73 53.0 30.0 90.0 10.0 298 658 26 0 0 1 0 1 0 0 1 1 0
74 92.0 30.0 90.0 10.0 335 695 52 1 1 1 0 1 0 0 0 0 0
75 53.0 35.0 90.0 50.0 203 563 24 0 0 0 0 0 0 0 0 1 0
76 45.0 65.0 90.0 20.0 770 1130 21 0 0 0 0 0 0 0 0 1 0
77 90.0 35.0 90.0 10.0 52 412 13 0 0 0 0 0 1 0 0 0 0
78 88.0 30.0 90.0 10.0 429 789 63 0 1 0 0 1 0 0 1 0 0
79 88.0 35.0 90.0 20.0 50 410 66 1 0 0 0 1 0 0 0 0 0
80 87.0 30.0 90.0 10.0 520 880 21 0 0 0 0 0 1 0 0 0 0
81 85.0 25.0 90.0 10.0 615 975 5 1 1 1 0 0 0 0 1 0 0
82 85.0 35.0 90.0 30.0 47 407 75 0 0 0 0 0 1 0 0 0 0
83 75.0 55.0 90.0 20.0 215 575 98 0 0 0 1 1 0 0 0 0 0
84 72.0 55.0 90.0 10.0 122 482 37 0 1 0 1 1 0 0 1 0 0
85 70.0 58.0 90.0 20.0 311 671 51 1 0 0 0 0 0 1 1 1 1
86 68.0 60.0 90.0 30.0 404 764 23 1 0 0 0 1 1 0 0 0 1
87 66.0 55.0 90.0 10.0 26 386 36 0 1 0 0 0 0 0 1 0 1
88 65.0 55.0 90.0 20.0 25 385 92 0 0 0 0 0 0 0 0 1 1
89 65.0 60.0 90.0 30.0 497 857 78 0 0 0 0 1 0 0 1 0 1
90 63.0 58.0 90.0 10.0 590 950 97 1 0 0 0 0 0 0 0 0 0
91 60.0 55.0 90.0 10.0 20 380 47 0 1 0 0 0 0 0 0 1 0
92 60.0 60.0 90.0 10.0 683 1043 54 1 1 1 0 0 0 0 0 0 0
93 67.0 85.0 90.0 20.0 225 585 54 0 0 0 0 0 1 0 0 0 0
94 65.0 85.0 90.0 40.0 317 677 64 1 0 0 0 1 0 0 0 1 1
95 65.0 82.0 90.0 10.0 131 491 12 0 1 0 1 0 1 1 1 0 1
96 62.0 80.0 90.0 30.0 38 398 25 0 0 0 1 0 1 0 0 0 1
97 60.0 80.0 90.0 10.0 36 396 67 1 0 0 0 0 0 0 0 0 0
98 60.0 85.0 90.0 30.0 412 772 10 0 0 0 0 0 1 0 1 0 0
99 58.0 75.0 90.0 20.0 30 390 25 0 0 0 0 0 1 0 0 0 0
100 55.0 80.0 90.0 10.0 602 962 16 0 1 0 0 0 1 0 0 1 0
101 55.0 85.0 90.0 20.0 507 867 40 0 1 0 0 0 1 0 0 0 0